0010111001011011000010101        425
0010111001011011000010101        425
0101111111011011001110001        482
0101111111011011001110001        482
0101111111011011001110001        482
0101111111011011001110001        482
0101111111011011001110001        482
0101111111011011001110001        482
0101111111011011001110001        482
0101111111011011001110001        482
0101111111011011001110001        482
0101111111011011001110001        482
0101111111011011001110001        482
0101111111011011001110001        482
0101111111011011001110001        482
0101111111011011001110001        482
0101111111011011001110001        482
0101111111011011001110001        482
0101111111011011001110001        482
0101111111011011001110001        482
0101111111011011001110001        482
0101111111011011001110001        482
0101111111011011001110001        482
0101111111011011001110001        482
0101111111011011001110001        482
0101111111011011001110001        482
0101111111011011001110001        482
0101111111011011001110001        482
0101111111011011001110001        482
0101111111011011001110001        482
0101111111011011001110001        482
0101111111011011001110001        482
0101111111011011001110001        482
0101111111011011001110001        482
0101111111011011001110001        482
0101111111011011001110001        482
0101111111011011001110001        482
0101111111011011001110001        482
0101111111011011001110001        482
0101111111011011001110001        482
0101111111011011001110001        482
0101111111011011001110001        482
0101111111011011001110001        482
0101111111011011001110001        482
0101111111011011001110001        482
0101111111011011001110001        482
0101111111011011001110001        482
0101111111011011001110001        482
0101111111011011001110001        482
0101111111011011001110001        482
0101111111011011001110001        482
0101111111011011001110001        482
0101111111011011001110001        482
0101111111011011001110001        482
0101111111011011001110001        482
0101111111011011001110001        482
0101111111011011001110001        482
0101111111011011001110001        482
0101111111011011001110001        482
0101111111011011001110001        482
0101111111011011001110001        482
0101111111011011001110001        482
0101111111011011001110001        482
0101111111011011001110001        482
0101111111011011001110001        482
0101111111011011001110001        482
0101111111011011001110001        482
0101111111011011001110001        482
0101111111011011001110001        482
0101111111011011001110001        482
0101111111011011001110001        482
0101111111011011001110001        482
0101111111011011001110001        482
0101111111011011001110001        482
0101111111011011001110001        482
0101111111011011001110001        482
0101111111011011001110001        482
0101111111011011001110001        482
0101111111011011001110001        482
0101111111011011001110001        482
0101111111011011001110001        482
0101111111011011001110001        482
0101111111011011001110001        482
0101111111011011001110001        482
0101111111011011001110001        482
0101111111011011001110001        482
0101111111011011001110001        482
0101111111011011001110001        482
0101111111011011001110001        482
0101111111011011001110001        482
0101111111011011001110001        482
0101111111011011001110001        482
0101111111011011001110001        482
0101111111011011001110001        482
0101111111011011001110001        482
0101111111011011001110001        482
0101111111011011001110001        482
0101111111011011001110001        482
0101111111011011001110001        482
0101111111011011001110001        482
0101111111011011001110001        482
0101111111011011001110001        482
0101111111011011001110001        482
0101111111011011001110001        482
0101111111011011001110001        482
0101111111011011001110001        482
0101111111011011001110001        482
0101111111011011001110001        482
0101111111011011001110001        482
0101111111011011001110001        482
0101111111011011001110001        482
0101111111011011001110001        482
0101111111011011001110001        482
0101111111011011001110001        482
0101111111011011001110001        482
0101111111011011001110001        482
0101111111011011001110001        482
0101111111011011001110001        482
0101111111011011001110001        482
0101111111011011001110001        482
0101111111011011001110001        482
0101111111011011001110001        482
0101111111011011001110001        482
0101111111011011001110001        482
0101111111011011001110001        482
0101111111011011001110001        482
0101111111011011001110001        482
0101111111011011001110001        482
0101111111011011001110001        482
0101111111011011001110001        482
0101111111011011001110001        482
0101111111011011001110001        482
0101111111011011001110001        482
0101111111011011001110001        482
0101111111011011001110001        482
0101111111011011001110001        482
0101111111011011001110001        482
0101111111011011001110001        482
0101111111011011001110001        482
0101111111011011001110001        482
0101111111011011001110001        482
0101111111011011001110001        482
0101111111011011001110001        482
0101111111011011001110001        482
0101111111011011001110001        482
0101111111011011001110001        482
0101111111011011001110001        482
0101111111011011001110001        482
0101111111011011001110001        482
0101111111011011001110001        482
0101111111011011001110001        482
0101111111011011001110001        482
0101111111011011001110001        482
0101111111011011001110001        482
0101111111011011001110001        482
0101111111011011001110001        482
0101111111011011001110001        482
0101111111011011001110001        482
0101111111011011001110001        482
0101111111011011001110001        482
0101111111011011001110001        482
0101111111011011001110001        482
0101111111011011001110001        482
0101111111011011001110001        482
0101111111011011001110001        482
0101111111011011001110001        482
0101111111011011001110001        482
0101111111011011001110001        482
0101111111011011001110001        482
0101111111011011001110001        482
0101111111011011001110001        482
0101111111011011001110001        482
0101111111011011001110001        482
0101111111011011001110001        482
0101111111011011001110001        482
0101111111011011001110001        482
0101111111011011001110001        482
0101111111011011001110001        482
0101111111011011001110001        482
0101111111011011001110001        482
0101111111011011001110001        482
0101111111011011001110001        482
0101111111011011001110001        482
0101111111011011001110001        482
0101111111011011001110001        482
0101111111011011001110001        482
0101111111011011001110001        482
0101111111011011001110001        482
0101111111011011001110001        482
0101111111011011001110001        482
0101111111011011001110001        482
0101111111011011001110001        482
0101111111011011001110001        482
0101111111011011001110001        482
0101111111011011001110001        482
0101111111011011001110001        482
0101111111011011001110001        482
0101111111011011001110001        482
0101111111011011001110001        482
0101111111011011001110001        482
0101111111011011001110001        482
0101111111011011001110001        482
0101111111011011001110001        482
0101111111011011001110001        482
0101111111011011001110001        482
0101111111011011001110001        482
0101111111011011001110001        482
0101111111011011001110001        482
0101111111011011001110001        482
0101111111011011001110001        482
0101111111011011001110001        482
0101111111011011001110001        482
0101111111011011001110001        482
0101111111011011001110001        482
0101111111011011001110001        482
0101111111011011001110001        482
0101111111011011001110001        482
0101111111011011001110001        482
0101111111011011001110001        482
0101111111011011001110001        482
0101111111011011001110001        482
